rectOffsets = 
    [|0,0,3,3|0,0,3,3|0,0,3,4|0,0,4,3|0,0,3,5|0,0,5,3|0,0,3,6|0,0,6,3|0,0,3,7|0,0,7,3|0,0,3,8|0,0,8,3|0,0,4,3|0,0,3,4|0,0,4,4|0,0,4,4|0,0,7,6|0,0,6,7|];

shape = array1d(1..18, [{1}, {2}, {3}, {4}, {5}, {6}, {7}, {8}, {9}, {10},
    {11}, {12}, {13}, {14}, {15}, {16}, {17}, {18}]);

validshapes = array1d(1..9, [{1,2}, {3,4}, {5,6}, {7,8}, {9,10}, {11,12}, {13,14},
    {15,16}, {17,18}]);

dx = array1d(1..9, [3, 3, 3, 3, 3, 3, 4, 4, 7]);

dy = array1d(1..9, [3, 4, 5, 6, 7, 8, 3, 4, 6]);

w = 13;

n = 9;

o = 18;

